Data path: /scratch/opt/lxu/CFLG/benchmarks/tree_A
Instance: treeA.100.10
Result path: /scratch/opt/lxu/CFLG/results/tree_A
Solver: Gurobi
Time limit: 7200
Formulation: LEFPAD
Cover: Small
julia --project=. src/main.jl /scratch/opt/lxu/CFLG/benchmarks/tree_A treeA.100.10 /scratch/opt/lxu/CFLG/results/tree_A Gurobi 7200 LEFPAD Small
The latest version of Julia in the `release` channel is 1.11.6+0.x64.linux.gnu. You currently have `1.11.4+0.x64.linux.gnu` installed. Run:

  juliaup update

in your terminal shell to install Julia 1.11.6+0.x64.linux.gnu and update the `release` channel to that version.
/scratch/opt/lxu/CFLG/benchmarks/tree_A Gurobi 7200.0 /scratch/opt/lxu/CFLG/results/tree_A treeA.100.10 LEFPAD Small
/scratch/opt/lxu/CFLG/benchmarks/tree_A/treeA.100.10

 read graph
data loaded


after absorb:72 100

max_piece:14
problem_graph/original graph: node: 72/100 edge: 81/109 dlt: 0.39385921107545346 break_avg_len: 2.12003229665306 break_max_len: 5.074254515781279Vbar/V, Ebar/E(35, 72, 44, 81)
Set parameter TokenServer to value "solice01.zib.de"
Set parameter Threads to value 1
Set parameter OutputFlag to value 1
Gurobi Optimizer version 12.0.1 build v12.0.1rc0 (linux64 - "Debian GNU/Linux 12 (bookworm)")

CPU model: Intel(R) Xeon(R) Gold 5122 CPU @ 3.60GHz, instruction set [SSE2|AVX|AVX2|AVX512]
Thread count: 8 physical cores, 16 logical processors, using up to 1 threads

Non-default parameters:
Threads  1

Optimize a model with 129 rows, 207 columns and 345 nonzeros
Model fingerprint: 0x85929ac6
Coefficient statistics:
  Matrix range     [1e+00, 1e+00]
  Objective range  [1e+00, 1e+00]
  Bounds range     [1e+00, 1e+00]
  RHS range        [1e+00, 1e+00]
Presolve removed 51 rows and 51 columns
Presolve time: 0.00s
Presolved: 78 rows, 156 columns, 243 nonzeros

Iteration    Objective       Primal Inf.    Dual Inf.      Time
       0    5.0000000e+01   1.600000e+01   0.000000e+00      0s
      26    3.5000000e+01   0.000000e+00   0.000000e+00      0s

Solved in 26 iterations and 0.00 seconds (0.00 work units)
Optimal objective  3.500000000e+01

User-callback calls 89, time in user-callback 0.01 sec
elapsed CPU time: 1.322797 seconds
Set parameter TokenServer to value "solice01.zib.de"
Set parameter Threads to value 1
Set parameter OutputFlag to value 1
Set parameter MIPGap to value 0.0001
Set parameter TimeLimit to value 7198.677203

 more cuts: false 0.39385921107545346 false
is_attach:trueformulation:LEFPAD44 25 25

 model loaded

Gurobi Optimizer version 12.0.1 build v12.0.1rc0 (linux64 - "Debian GNU/Linux 12 (bookworm)")

CPU model: Intel(R) Xeon(R) Gold 5122 CPU @ 3.60GHz, instruction set [SSE2|AVX|AVX2|AVX512]
Thread count: 8 physical cores, 16 logical processors, using up to 1 threads

Non-default parameters:
TimeLimit  7198.677203
Threads  1

Optimize a model with 1314 rows, 867 columns and 2910 nonzeros
Model fingerprint: 0x8c3bbca5
Variable types: 394 continuous, 473 integer (473 binary)
Coefficient statistics:
  Matrix range     [2e-03, 5e+00]
  Objective range  [1e+00, 1e+00]
  Bounds range     [2e-03, 5e+00]
  RHS range        [2e-03, 4e+00]
Presolve removed 898 rows and 435 columns
Presolve time: 0.01s
Presolved: 416 rows, 432 columns, 1383 nonzeros
Variable types: 253 continuous, 179 integer (179 binary)
Found heuristic solution: objective 233.0000000
Found heuristic solution: objective 232.0000000

Root relaxation: objective 2.013530e+02, 449 iterations, 0.00 seconds (0.00 work units)

    Nodes    |    Current Node    |     Objective Bounds      |     Work
 Expl Unexpl |  Obj  Depth IntInf | Incumbent    BestBd   Gap | It/Node Time

     0     0  201.35302    0  105  232.00000  201.35302  13.2%     -    0s
H    0     0                     224.0000000  201.35302  10.1%     -    0s
     0     0  208.62880    0   82  224.00000  208.62880  6.86%     -    0s
H    0     0                     223.0000000  208.70671  6.41%     -    0s
H    0     0                     221.0000000  208.70671  5.56%     -    0s
     0     0  208.70671    0   84  221.00000  208.70671  5.56%     -    0s
     0     0  208.71470    0   84  221.00000  208.71470  5.56%     -    0s
     0     0  208.71563    0   84  221.00000  208.71563  5.56%     -    0s
     0     0  209.82824    0  110  221.00000  209.82824  5.06%     -    0s
H    0     0                     220.0000000  209.84833  4.61%     -    0s
H    0     0                     219.0000000  209.84833  4.18%     -    0s
     0     0  209.84948    0  103  219.00000  209.84948  4.18%     -    0s
     0     0  209.86355    0  106  219.00000  209.86355  4.17%     -    0s
     0     0  209.86461    0  103  219.00000  209.86461  4.17%     -    0s
     0     0  210.86469    0   71  219.00000  210.86469  3.71%     -    0s
     0     0  210.91357    0   78  219.00000  210.91357  3.69%     -    0s
     0     0  211.15619    0   68  219.00000  211.15619  3.58%     -    0s
     0     0  211.17178    0   66  219.00000  211.17178  3.57%     -    0s
     0     0  211.17444    0   68  219.00000  211.17444  3.57%     -    0s
     0     0  211.59202    0   61  219.00000  211.59202  3.38%     -    0s
H    0     0                     218.0000000  211.59202  2.94%     -    0s
     0     0  211.66667    0   55  218.00000  211.66667  2.91%     -    0s
     0     0  211.66667    0   37  218.00000  211.66667  2.91%     -    0s
     0     0  211.66667    0   51  218.00000  211.66667  2.91%     -    0s
H    0     0                     217.0000000  212.00000  2.30%     -    0s
     0     0  212.00000    0   53  217.00000  212.00000  2.30%     -    0s
     0     0  212.00000    0   42  217.00000  212.00000  2.30%     -    0s
     0     0  212.00000    0   43  217.00000  212.00000  2.30%     -    0s
     0     0  212.00000    0   27  217.00000  212.00000  2.30%     -    0s
H    0     0                     216.0000000  212.00000  1.85%     -    0s
     0     0  212.00000    0   45  216.00000  212.00000  1.85%     -    0s
     0     0  212.00000    0   19  216.00000  212.00000  1.85%     -    0s
     0     0  212.00000    0   32  216.00000  212.00000  1.85%     -    0s
     0     0  212.00000    0   31  216.00000  212.00000  1.85%     -    0s
     0     0  212.00000    0   30  216.00000  212.00000  1.85%     -    0s
     0     2  212.00000    0   25  216.00000  212.00000  1.85%     -    0s
H   81    60                     215.0000000  212.00000  1.40%  12.1    0s
H  741   214                     214.0000000  212.00000  0.93%  18.4    0s
  3232   288  213.00000   22   46  214.00000  213.00000  0.47%  34.2    5s
  6008   160  213.00000   27   45  214.00000  213.00000  0.47%  39.2   10s

Cutting planes:
  Gomory: 23
  Cover: 83
  Implied bound: 45
  Clique: 8
  MIR: 107
  StrongCG: 2
  Flow cover: 156
  GUB cover: 7
  RLT: 22
  Relax-and-lift: 4
  BQP: 1

Explored 8916 nodes (367734 simplex iterations) in 14.69 seconds (9.82 work units)
Thread count was 1 (of 16 available processors)

Solution count 10: 214 215 216 ... 224

Optimal solution found (tolerance 1.00e-04)
Best objective 2.140000000000e+02, best bound 2.140000000000e+02, gap 0.0000%

User-callback calls 24676, time in user-callback 0.02 sec

 sepatime0 0 0
214.0
Stat(MathOptInterface.OPTIMAL, 214.0, 214.0, 0.0, 0.0, 1.322797, 14.691351175308228, 8916, Main.CFLG.LEFPAD, "", #undef)
